c 1 __UCLIBC_HAS_CTYPE_TABLES__
c 2 __UCLIBC_HAS_THREADS_NATIVE__
c 3 __UCLIBC_HAS_XLOCALE__
c 6 __UCLIBC_HAS_LOCALE__
c 7 __LINUXTHREADS_NEW__
c 5 __UCLIBC_HAS_THREADS__
c 4 __MALLOC_SIMPLE__
p cnf 7 1
2 -1 -3 -5 6 -4 -7 1
